(set-option :produce-models true)
(declare-fun iniMes_mes0_aceite0 () Int)
(declare-fun comprado_mes0_aceite0 () Int)
(declare-fun refinado_mes0_aceite0 () Int)
(declare-fun iniMes_mes0_aceite1 () Int)
(declare-fun comprado_mes0_aceite1 () Int)
(declare-fun refinado_mes0_aceite1 () Int)
(declare-fun iniMes_mes0_aceite2 () Int)
(declare-fun comprado_mes0_aceite2 () Int)
(declare-fun refinado_mes0_aceite2 () Int)
(declare-fun iniMes_mes0_aceite3 () Int)
(declare-fun comprado_mes0_aceite3 () Int)
(declare-fun refinado_mes0_aceite3 () Int)
(declare-fun iniMes_mes0_aceite4 () Int)
(declare-fun comprado_mes0_aceite4 () Int)
(declare-fun refinado_mes0_aceite4 () Int)
(declare-fun iniMes_mes0_aceite5 () Int)
(declare-fun comprado_mes0_aceite5 () Int)
(declare-fun refinado_mes0_aceite5 () Int)
(declare-fun iniMes_mes1_aceite0 () Int)
(declare-fun comprado_mes1_aceite0 () Int)
(declare-fun refinado_mes1_aceite0 () Int)
(declare-fun iniMes_mes1_aceite1 () Int)
(declare-fun comprado_mes1_aceite1 () Int)
(declare-fun refinado_mes1_aceite1 () Int)
(declare-fun iniMes_mes1_aceite2 () Int)
(declare-fun comprado_mes1_aceite2 () Int)
(declare-fun refinado_mes1_aceite2 () Int)
(declare-fun iniMes_mes1_aceite3 () Int)
(declare-fun comprado_mes1_aceite3 () Int)
(declare-fun refinado_mes1_aceite3 () Int)
(declare-fun iniMes_mes1_aceite4 () Int)
(declare-fun comprado_mes1_aceite4 () Int)
(declare-fun refinado_mes1_aceite4 () Int)
(declare-fun iniMes_mes1_aceite5 () Int)
(declare-fun comprado_mes1_aceite5 () Int)
(declare-fun refinado_mes1_aceite5 () Int)
(declare-fun iniMes_mes2_aceite0 () Int)
(declare-fun comprado_mes2_aceite0 () Int)
(declare-fun refinado_mes2_aceite0 () Int)
(declare-fun iniMes_mes2_aceite1 () Int)
(declare-fun comprado_mes2_aceite1 () Int)
(declare-fun refinado_mes2_aceite1 () Int)
(declare-fun iniMes_mes2_aceite2 () Int)
(declare-fun comprado_mes2_aceite2 () Int)
(declare-fun refinado_mes2_aceite2 () Int)
(declare-fun iniMes_mes2_aceite3 () Int)
(declare-fun comprado_mes2_aceite3 () Int)
(declare-fun refinado_mes2_aceite3 () Int)
(declare-fun iniMes_mes2_aceite4 () Int)
(declare-fun comprado_mes2_aceite4 () Int)
(declare-fun refinado_mes2_aceite4 () Int)
(declare-fun iniMes_mes2_aceite5 () Int)
(declare-fun comprado_mes2_aceite5 () Int)
(declare-fun refinado_mes2_aceite5 () Int)
(declare-fun iniMes_mes3_aceite0 () Int)
(declare-fun comprado_mes3_aceite0 () Int)
(declare-fun refinado_mes3_aceite0 () Int)
(declare-fun iniMes_mes3_aceite1 () Int)
(declare-fun comprado_mes3_aceite1 () Int)
(declare-fun refinado_mes3_aceite1 () Int)
(declare-fun iniMes_mes3_aceite2 () Int)
(declare-fun comprado_mes3_aceite2 () Int)
(declare-fun refinado_mes3_aceite2 () Int)
(declare-fun iniMes_mes3_aceite3 () Int)
(declare-fun comprado_mes3_aceite3 () Int)
(declare-fun refinado_mes3_aceite3 () Int)
(declare-fun iniMes_mes3_aceite4 () Int)
(declare-fun comprado_mes3_aceite4 () Int)
(declare-fun refinado_mes3_aceite4 () Int)
(declare-fun iniMes_mes3_aceite5 () Int)
(declare-fun comprado_mes3_aceite5 () Int)
(declare-fun refinado_mes3_aceite5 () Int)
(declare-fun totalRefinado_mes0 () Int)
(declare-fun totalRefinado_mes1 () Int)
(declare-fun totalRefinado_mes2 () Int)
(declare-fun totalRefinado_mes3 () Int)
(declare-fun ganancias () Int)
(declare-fun costeAlmacMes () Int)
(declare-fun costeAceiteCompra () Int)
(declare-fun costes () Int)
(declare-fun beneficio () Int)
(assert (<= 0 iniMes_mes0_aceite0 ) )
(assert (<= iniMes_mes0_aceite0 1500 ) )
(assert (<= 0 comprado_mes0_aceite0 ) )
(assert (<= comprado_mes0_aceite0 1500 ) )
(assert (<= 0 refinado_mes0_aceite0 ) )
(assert (<= refinado_mes0_aceite0 1500 ) )
(assert (<= 0 iniMes_mes0_aceite1 ) )
(assert (<= iniMes_mes0_aceite1 1500 ) )
(assert (<= 0 comprado_mes0_aceite1 ) )
(assert (<= comprado_mes0_aceite1 1500 ) )
(assert (<= 0 refinado_mes0_aceite1 ) )
(assert (<= refinado_mes0_aceite1 1500 ) )
(assert (<= 0 iniMes_mes0_aceite2 ) )
(assert (<= iniMes_mes0_aceite2 1500 ) )
(assert (<= 0 comprado_mes0_aceite2 ) )
(assert (<= comprado_mes0_aceite2 1500 ) )
(assert (<= 0 refinado_mes0_aceite2 ) )
(assert (<= refinado_mes0_aceite2 1500 ) )
(assert (<= 0 iniMes_mes0_aceite3 ) )
(assert (<= iniMes_mes0_aceite3 1500 ) )
(assert (<= 0 comprado_mes0_aceite3 ) )
(assert (<= comprado_mes0_aceite3 1500 ) )
(assert (<= 0 refinado_mes0_aceite3 ) )
(assert (<= refinado_mes0_aceite3 1500 ) )
(assert (<= 0 iniMes_mes0_aceite4 ) )
(assert (<= iniMes_mes0_aceite4 1500 ) )
(assert (<= 0 comprado_mes0_aceite4 ) )
(assert (<= comprado_mes0_aceite4 1500 ) )
(assert (<= 0 refinado_mes0_aceite4 ) )
(assert (<= refinado_mes0_aceite4 1500 ) )
(assert (<= 0 iniMes_mes0_aceite5 ) )
(assert (<= iniMes_mes0_aceite5 1500 ) )
(assert (<= 0 comprado_mes0_aceite5 ) )
(assert (<= comprado_mes0_aceite5 1500 ) )
(assert (<= 0 refinado_mes0_aceite5 ) )
(assert (<= refinado_mes0_aceite5 1500 ) )
(assert (<= 0 iniMes_mes1_aceite0 ) )
(assert (<= iniMes_mes1_aceite0 1500 ) )
(assert (<= 0 comprado_mes1_aceite0 ) )
(assert (<= comprado_mes1_aceite0 1500 ) )
(assert (<= 0 refinado_mes1_aceite0 ) )
(assert (<= refinado_mes1_aceite0 1500 ) )
(assert (<= 0 iniMes_mes1_aceite1 ) )
(assert (<= iniMes_mes1_aceite1 1500 ) )
(assert (<= 0 comprado_mes1_aceite1 ) )
(assert (<= comprado_mes1_aceite1 1500 ) )
(assert (<= 0 refinado_mes1_aceite1 ) )
(assert (<= refinado_mes1_aceite1 1500 ) )
(assert (<= 0 iniMes_mes1_aceite2 ) )
(assert (<= iniMes_mes1_aceite2 1500 ) )
(assert (<= 0 comprado_mes1_aceite2 ) )
(assert (<= comprado_mes1_aceite2 1500 ) )
(assert (<= 0 refinado_mes1_aceite2 ) )
(assert (<= refinado_mes1_aceite2 1500 ) )
(assert (<= 0 iniMes_mes1_aceite3 ) )
(assert (<= iniMes_mes1_aceite3 1500 ) )
(assert (<= 0 comprado_mes1_aceite3 ) )
(assert (<= comprado_mes1_aceite3 1500 ) )
(assert (<= 0 refinado_mes1_aceite3 ) )
(assert (<= refinado_mes1_aceite3 1500 ) )
(assert (<= 0 iniMes_mes1_aceite4 ) )
(assert (<= iniMes_mes1_aceite4 1500 ) )
(assert (<= 0 comprado_mes1_aceite4 ) )
(assert (<= comprado_mes1_aceite4 1500 ) )
(assert (<= 0 refinado_mes1_aceite4 ) )
(assert (<= refinado_mes1_aceite4 1500 ) )
(assert (<= 0 iniMes_mes1_aceite5 ) )
(assert (<= iniMes_mes1_aceite5 1500 ) )
(assert (<= 0 comprado_mes1_aceite5 ) )
(assert (<= comprado_mes1_aceite5 1500 ) )
(assert (<= 0 refinado_mes1_aceite5 ) )
(assert (<= refinado_mes1_aceite5 1500 ) )
(assert (<= 0 iniMes_mes2_aceite0 ) )
(assert (<= iniMes_mes2_aceite0 1500 ) )
(assert (<= 0 comprado_mes2_aceite0 ) )
(assert (<= comprado_mes2_aceite0 1500 ) )
(assert (<= 0 refinado_mes2_aceite0 ) )
(assert (<= refinado_mes2_aceite0 1500 ) )
(assert (<= 0 iniMes_mes2_aceite1 ) )
(assert (<= iniMes_mes2_aceite1 1500 ) )
(assert (<= 0 comprado_mes2_aceite1 ) )
(assert (<= comprado_mes2_aceite1 1500 ) )
(assert (<= 0 refinado_mes2_aceite1 ) )
(assert (<= refinado_mes2_aceite1 1500 ) )
(assert (<= 0 iniMes_mes2_aceite2 ) )
(assert (<= iniMes_mes2_aceite2 1500 ) )
(assert (<= 0 comprado_mes2_aceite2 ) )
(assert (<= comprado_mes2_aceite2 1500 ) )
(assert (<= 0 refinado_mes2_aceite2 ) )
(assert (<= refinado_mes2_aceite2 1500 ) )
(assert (<= 0 iniMes_mes2_aceite3 ) )
(assert (<= iniMes_mes2_aceite3 1500 ) )
(assert (<= 0 comprado_mes2_aceite3 ) )
(assert (<= comprado_mes2_aceite3 1500 ) )
(assert (<= 0 refinado_mes2_aceite3 ) )
(assert (<= refinado_mes2_aceite3 1500 ) )
(assert (<= 0 iniMes_mes2_aceite4 ) )
(assert (<= iniMes_mes2_aceite4 1500 ) )
(assert (<= 0 comprado_mes2_aceite4 ) )
(assert (<= comprado_mes2_aceite4 1500 ) )
(assert (<= 0 refinado_mes2_aceite4 ) )
(assert (<= refinado_mes2_aceite4 1500 ) )
(assert (<= 0 iniMes_mes2_aceite5 ) )
(assert (<= iniMes_mes2_aceite5 1500 ) )
(assert (<= 0 comprado_mes2_aceite5 ) )
(assert (<= comprado_mes2_aceite5 1500 ) )
(assert (<= 0 refinado_mes2_aceite5 ) )
(assert (<= refinado_mes2_aceite5 1500 ) )
(assert (<= 0 iniMes_mes3_aceite0 ) )
(assert (<= iniMes_mes3_aceite0 1500 ) )
(assert (<= 0 comprado_mes3_aceite0 ) )
(assert (<= comprado_mes3_aceite0 1500 ) )
(assert (<= 0 refinado_mes3_aceite0 ) )
(assert (<= refinado_mes3_aceite0 1500 ) )
(assert (<= 0 iniMes_mes3_aceite1 ) )
(assert (<= iniMes_mes3_aceite1 1500 ) )
(assert (<= 0 comprado_mes3_aceite1 ) )
(assert (<= comprado_mes3_aceite1 1500 ) )
(assert (<= 0 refinado_mes3_aceite1 ) )
(assert (<= refinado_mes3_aceite1 1500 ) )
(assert (<= 0 iniMes_mes3_aceite2 ) )
(assert (<= iniMes_mes3_aceite2 1500 ) )
(assert (<= 0 comprado_mes3_aceite2 ) )
(assert (<= comprado_mes3_aceite2 1500 ) )
(assert (<= 0 refinado_mes3_aceite2 ) )
(assert (<= refinado_mes3_aceite2 1500 ) )
(assert (<= 0 iniMes_mes3_aceite3 ) )
(assert (<= iniMes_mes3_aceite3 1500 ) )
(assert (<= 0 comprado_mes3_aceite3 ) )
(assert (<= comprado_mes3_aceite3 1500 ) )
(assert (<= 0 refinado_mes3_aceite3 ) )
(assert (<= refinado_mes3_aceite3 1500 ) )
(assert (<= 0 iniMes_mes3_aceite4 ) )
(assert (<= iniMes_mes3_aceite4 1500 ) )
(assert (<= 0 comprado_mes3_aceite4 ) )
(assert (<= comprado_mes3_aceite4 1500 ) )
(assert (<= 0 refinado_mes3_aceite4 ) )
(assert (<= refinado_mes3_aceite4 1500 ) )
(assert (<= 0 iniMes_mes3_aceite5 ) )
(assert (<= iniMes_mes3_aceite5 1500 ) )
(assert (<= 0 comprado_mes3_aceite5 ) )
(assert (<= comprado_mes3_aceite5 1500 ) )
(assert (<= 0 refinado_mes3_aceite5 ) )
(assert (<= refinado_mes3_aceite5 1500 ) )
(assert (<= 0 totalRefinado_mes0 ) )
(assert (<= totalRefinado_mes0 9000 ) )
(assert (<= 0 totalRefinado_mes1 ) )
(assert (<= totalRefinado_mes1 9000 ) )
(assert (<= 0 totalRefinado_mes2 ) )
(assert (<= totalRefinado_mes2 9000 ) )
(assert (<= 0 totalRefinado_mes3 ) )
(assert (<= totalRefinado_mes3 9000 ) )
(assert (= iniMes_mes0_aceite0 100 ) )
(assert (= iniMes_mes0_aceite1 150 ) )
(assert (= iniMes_mes0_aceite2 200 ) )
(assert (= iniMes_mes0_aceite3 120 ) )
(assert (= iniMes_mes0_aceite4 170 ) )
(assert (= iniMes_mes0_aceite5 120 ) )
(assert (= 100 (- (+ iniMes_mes3_aceite0 comprado_mes3_aceite0 ) refinado_mes3_aceite0 ) ) )
(assert (= 150 (- (+ iniMes_mes3_aceite1 comprado_mes3_aceite1 ) refinado_mes3_aceite1 ) ) )
(assert (= 200 (- (+ iniMes_mes3_aceite2 comprado_mes3_aceite2 ) refinado_mes3_aceite2 ) ) )
(assert (= 120 (- (+ iniMes_mes3_aceite3 comprado_mes3_aceite3 ) refinado_mes3_aceite3 ) ) )
(assert (= 170 (- (+ iniMes_mes3_aceite4 comprado_mes3_aceite4 ) refinado_mes3_aceite4 ) ) )
(assert (= 120 (- (+ iniMes_mes3_aceite5 comprado_mes3_aceite5 ) refinado_mes3_aceite5 ) ) )
(assert (= iniMes_mes1_aceite0 (- (+ iniMes_mes0_aceite0 comprado_mes0_aceite0 ) refinado_mes0_aceite0 ) ) )
(assert (= iniMes_mes1_aceite1 (- (+ iniMes_mes0_aceite1 comprado_mes0_aceite1 ) refinado_mes0_aceite1 ) ) )
(assert (= iniMes_mes1_aceite2 (- (+ iniMes_mes0_aceite2 comprado_mes0_aceite2 ) refinado_mes0_aceite2 ) ) )
(assert (= iniMes_mes1_aceite3 (- (+ iniMes_mes0_aceite3 comprado_mes0_aceite3 ) refinado_mes0_aceite3 ) ) )
(assert (= iniMes_mes1_aceite4 (- (+ iniMes_mes0_aceite4 comprado_mes0_aceite4 ) refinado_mes0_aceite4 ) ) )
(assert (= iniMes_mes1_aceite5 (- (+ iniMes_mes0_aceite5 comprado_mes0_aceite5 ) refinado_mes0_aceite5 ) ) )
(assert (= iniMes_mes2_aceite0 (- (+ iniMes_mes1_aceite0 comprado_mes1_aceite0 ) refinado_mes1_aceite0 ) ) )
(assert (= iniMes_mes2_aceite1 (- (+ iniMes_mes1_aceite1 comprado_mes1_aceite1 ) refinado_mes1_aceite1 ) ) )
(assert (= iniMes_mes2_aceite2 (- (+ iniMes_mes1_aceite2 comprado_mes1_aceite2 ) refinado_mes1_aceite2 ) ) )
(assert (= iniMes_mes2_aceite3 (- (+ iniMes_mes1_aceite3 comprado_mes1_aceite3 ) refinado_mes1_aceite3 ) ) )
(assert (= iniMes_mes2_aceite4 (- (+ iniMes_mes1_aceite4 comprado_mes1_aceite4 ) refinado_mes1_aceite4 ) ) )
(assert (= iniMes_mes2_aceite5 (- (+ iniMes_mes1_aceite5 comprado_mes1_aceite5 ) refinado_mes1_aceite5 ) ) )
(assert (= iniMes_mes3_aceite0 (- (+ iniMes_mes2_aceite0 comprado_mes2_aceite0 ) refinado_mes2_aceite0 ) ) )
(assert (= iniMes_mes3_aceite1 (- (+ iniMes_mes2_aceite1 comprado_mes2_aceite1 ) refinado_mes2_aceite1 ) ) )
(assert (= iniMes_mes3_aceite2 (- (+ iniMes_mes2_aceite2 comprado_mes2_aceite2 ) refinado_mes2_aceite2 ) ) )
(assert (= iniMes_mes3_aceite3 (- (+ iniMes_mes2_aceite3 comprado_mes2_aceite3 ) refinado_mes2_aceite3 ) ) )
(assert (= iniMes_mes3_aceite4 (- (+ iniMes_mes2_aceite4 comprado_mes2_aceite4 ) refinado_mes2_aceite4 ) ) )
(assert (= iniMes_mes3_aceite5 (- (+ iniMes_mes2_aceite5 comprado_mes2_aceite5 ) refinado_mes2_aceite5 ) ) )
(assert (<= (+ refinado_mes0_aceite2 (+ refinado_mes0_aceite1 refinado_mes0_aceite0 ) ) 250 ) )
(assert (<= (+ refinado_mes1_aceite2 (+ refinado_mes1_aceite1 refinado_mes1_aceite0 ) ) 250 ) )
(assert (<= (+ refinado_mes2_aceite2 (+ refinado_mes2_aceite1 refinado_mes2_aceite0 ) ) 250 ) )
(assert (<= (+ refinado_mes3_aceite2 (+ refinado_mes3_aceite1 refinado_mes3_aceite0 ) ) 250 ) )
(assert (<= (+ refinado_mes0_aceite5 (+ refinado_mes0_aceite4 refinado_mes0_aceite3 ) ) 250 ) )
(assert (<= (+ refinado_mes1_aceite5 (+ refinado_mes1_aceite4 refinado_mes1_aceite3 ) ) 250 ) )
(assert (<= (+ refinado_mes2_aceite5 (+ refinado_mes2_aceite4 refinado_mes2_aceite3 ) ) 250 ) )
(assert (<= (+ refinado_mes3_aceite5 (+ refinado_mes3_aceite4 refinado_mes3_aceite3 ) ) 250 ) )
(assert (<= (+ comprado_mes0_aceite0 iniMes_mes0_aceite0 ) 1500 ) )
(assert (<= (+ comprado_mes0_aceite1 iniMes_mes0_aceite1 ) 1500 ) )
(assert (<= (+ comprado_mes0_aceite2 iniMes_mes0_aceite2 ) 1500 ) )
(assert (<= (+ comprado_mes0_aceite3 iniMes_mes0_aceite3 ) 1500 ) )
(assert (<= (+ comprado_mes0_aceite4 iniMes_mes0_aceite4 ) 1500 ) )
(assert (<= (+ comprado_mes0_aceite5 iniMes_mes0_aceite5 ) 1500 ) )
(assert (<= (+ comprado_mes1_aceite0 iniMes_mes1_aceite0 ) 1500 ) )
(assert (<= (+ comprado_mes1_aceite1 iniMes_mes1_aceite1 ) 1500 ) )
(assert (<= (+ comprado_mes1_aceite2 iniMes_mes1_aceite2 ) 1500 ) )
(assert (<= (+ comprado_mes1_aceite3 iniMes_mes1_aceite3 ) 1500 ) )
(assert (<= (+ comprado_mes1_aceite4 iniMes_mes1_aceite4 ) 1500 ) )
(assert (<= (+ comprado_mes1_aceite5 iniMes_mes1_aceite5 ) 1500 ) )
(assert (<= (+ comprado_mes2_aceite0 iniMes_mes2_aceite0 ) 1500 ) )
(assert (<= (+ comprado_mes2_aceite1 iniMes_mes2_aceite1 ) 1500 ) )
(assert (<= (+ comprado_mes2_aceite2 iniMes_mes2_aceite2 ) 1500 ) )
(assert (<= (+ comprado_mes2_aceite3 iniMes_mes2_aceite3 ) 1500 ) )
(assert (<= (+ comprado_mes2_aceite4 iniMes_mes2_aceite4 ) 1500 ) )
(assert (<= (+ comprado_mes2_aceite5 iniMes_mes2_aceite5 ) 1500 ) )
(assert (<= (+ comprado_mes3_aceite0 iniMes_mes3_aceite0 ) 1500 ) )
(assert (<= (+ comprado_mes3_aceite1 iniMes_mes3_aceite1 ) 1500 ) )
(assert (<= (+ comprado_mes3_aceite2 iniMes_mes3_aceite2 ) 1500 ) )
(assert (<= (+ comprado_mes3_aceite3 iniMes_mes3_aceite3 ) 1500 ) )
(assert (<= (+ comprado_mes3_aceite4 iniMes_mes3_aceite4 ) 1500 ) )
(assert (<= (+ comprado_mes3_aceite5 iniMes_mes3_aceite5 ) 1500 ) )
(assert (= totalRefinado_mes0 (+ refinado_mes0_aceite5 (+ refinado_mes0_aceite4 (+ refinado_mes0_aceite3 (+ refinado_mes0_aceite2 (+ refinado_mes0_aceite1 refinado_mes0_aceite0 ) ) ) ) ) ) )
(assert (= totalRefinado_mes1 (+ refinado_mes1_aceite5 (+ refinado_mes1_aceite4 (+ refinado_mes1_aceite3 (+ refinado_mes1_aceite2 (+ refinado_mes1_aceite1 refinado_mes1_aceite0 ) ) ) ) ) ) )
(assert (= totalRefinado_mes2 (+ refinado_mes2_aceite5 (+ refinado_mes2_aceite4 (+ refinado_mes2_aceite3 (+ refinado_mes2_aceite2 (+ refinado_mes2_aceite1 refinado_mes2_aceite0 ) ) ) ) ) ) )
(assert (= totalRefinado_mes3 (+ refinado_mes3_aceite5 (+ refinado_mes3_aceite4 (+ refinado_mes3_aceite3 (+ refinado_mes3_aceite2 (+ refinado_mes3_aceite1 refinado_mes3_aceite0 ) ) ) ) ) ) )
(assert (<= (+ (* refinado_mes0_aceite5 4.9 ) (+ (* refinado_mes0_aceite4 5.1 ) (+ (* refinado_mes0_aceite3 4.3 ) (+ (* refinado_mes0_aceite2 2.8 ) (+ (* refinado_mes0_aceite1 6.1 ) (* refinado_mes0_aceite0 8.0 ) ) ) ) ) ) (* totalRefinado_mes0 7 ) ) )
(assert (>= (+ (* refinado_mes0_aceite5 4.9 ) (+ (* refinado_mes0_aceite4 5.1 ) (+ (* refinado_mes0_aceite3 4.3 ) (+ (* refinado_mes0_aceite2 2.8 ) (+ (* refinado_mes0_aceite1 6.1 ) (* refinado_mes0_aceite0 8.0 ) ) ) ) ) ) (* totalRefinado_mes0 3 ) ) )
(assert (<= (+ (* refinado_mes1_aceite5 4.9 ) (+ (* refinado_mes1_aceite4 5.1 ) (+ (* refinado_mes1_aceite3 4.3 ) (+ (* refinado_mes1_aceite2 2.8 ) (+ (* refinado_mes1_aceite1 6.1 ) (* refinado_mes1_aceite0 8.0 ) ) ) ) ) ) (* totalRefinado_mes1 7 ) ) )
(assert (>= (+ (* refinado_mes1_aceite5 4.9 ) (+ (* refinado_mes1_aceite4 5.1 ) (+ (* refinado_mes1_aceite3 4.3 ) (+ (* refinado_mes1_aceite2 2.8 ) (+ (* refinado_mes1_aceite1 6.1 ) (* refinado_mes1_aceite0 8.0 ) ) ) ) ) ) (* totalRefinado_mes1 3 ) ) )
(assert (<= (+ (* refinado_mes2_aceite5 4.9 ) (+ (* refinado_mes2_aceite4 5.1 ) (+ (* refinado_mes2_aceite3 4.3 ) (+ (* refinado_mes2_aceite2 2.8 ) (+ (* refinado_mes2_aceite1 6.1 ) (* refinado_mes2_aceite0 8.0 ) ) ) ) ) ) (* totalRefinado_mes2 7 ) ) )
(assert (>= (+ (* refinado_mes2_aceite5 4.9 ) (+ (* refinado_mes2_aceite4 5.1 ) (+ (* refinado_mes2_aceite3 4.3 ) (+ (* refinado_mes2_aceite2 2.8 ) (+ (* refinado_mes2_aceite1 6.1 ) (* refinado_mes2_aceite0 8.0 ) ) ) ) ) ) (* totalRefinado_mes2 3 ) ) )
(assert (<= (+ (* refinado_mes3_aceite5 4.9 ) (+ (* refinado_mes3_aceite4 5.1 ) (+ (* refinado_mes3_aceite3 4.3 ) (+ (* refinado_mes3_aceite2 2.8 ) (+ (* refinado_mes3_aceite1 6.1 ) (* refinado_mes3_aceite0 8.0 ) ) ) ) ) ) (* totalRefinado_mes3 7 ) ) )
(assert (>= (+ (* refinado_mes3_aceite5 4.9 ) (+ (* refinado_mes3_aceite4 5.1 ) (+ (* refinado_mes3_aceite3 4.3 ) (+ (* refinado_mes3_aceite2 2.8 ) (+ (* refinado_mes3_aceite1 6.1 ) (* refinado_mes3_aceite0 8.0 ) ) ) ) ) ) (* totalRefinado_mes3 3 ) ) )
(assert (= ganancias (* 230 (+ refinado_mes3_aceite5 (+ refinado_mes3_aceite4 (+ refinado_mes3_aceite3 (+ refinado_mes3_aceite2 (+ refinado_mes3_aceite1 (+ refinado_mes3_aceite0 (+ refinado_mes2_aceite5 (+ refinado_mes2_aceite4 (+ refinado_mes2_aceite3 (+ refinado_mes2_aceite2 (+ refinado_mes2_aceite1 (+ refinado_mes2_aceite0 (+ refinado_mes1_aceite5 (+ refinado_mes1_aceite4 (+ refinado_mes1_aceite3 (+ refinado_mes1_aceite2 (+ refinado_mes1_aceite1 (+ refinado_mes1_aceite0 (+ refinado_mes0_aceite5 (+ refinado_mes0_aceite4 (+ refinado_mes0_aceite3 (+ refinado_mes0_aceite2 (+ refinado_mes0_aceite1 refinado_mes0_aceite0 ) ) ) ) ) ) ) ) ) ) ) ) ) ) ) ) ) ) ) ) ) ) ) ) ) )
(assert (= costeAlmacMes (* 5 (+ iniMes_mes3_aceite5 (+ iniMes_mes3_aceite4 (+ iniMes_mes3_aceite3 (+ iniMes_mes3_aceite2 (+ iniMes_mes3_aceite1 (+ iniMes_mes3_aceite0 (+ iniMes_mes2_aceite5 (+ iniMes_mes2_aceite4 (+ iniMes_mes2_aceite3 (+ iniMes_mes2_aceite2 (+ iniMes_mes2_aceite1 (+ iniMes_mes2_aceite0 (+ iniMes_mes1_aceite5 (+ iniMes_mes1_aceite4 (+ iniMes_mes1_aceite3 (+ iniMes_mes1_aceite2 (+ iniMes_mes1_aceite1 iniMes_mes1_aceite0 ) ) ) ) ) ) ) ) ) ) ) ) ) ) ) ) ) ) ) )
(assert (= costeAceiteCompra (+ (* comprado_mes3_aceite5 100 ) (+ (* comprado_mes3_aceite4 125 ) (+ (* comprado_mes3_aceite3 120 ) (+ (* comprado_mes3_aceite2 120 ) (+ (* comprado_mes3_aceite1 110 ) (+ (* comprado_mes3_aceite0 120 ) (+ (* comprado_mes2_aceite5 80 ) (+ (* comprado_mes2_aceite4 95 ) (+ (* comprado_mes2_aceite3 100 ) (+ (* comprado_mes2_aceite2 130 ) (+ (* comprado_mes2_aceite1 140 ) (+ (* comprado_mes2_aceite0 110 ) (+ (* comprado_mes1_aceite5 115 ) (+ (* comprado_mes1_aceite4 90 ) (+ (* comprado_mes1_aceite3 110 ) (+ (* comprado_mes1_aceite2 130 ) (+ (* comprado_mes1_aceite1 130 ) (+ (* comprado_mes1_aceite0 120 ) (+ (* comprado_mes0_aceite5 115 ) (+ (* comprado_mes0_aceite4 110 ) (+ (* comprado_mes0_aceite3 130 ) (+ (* comprado_mes0_aceite2 110 ) (+ (* comprado_mes0_aceite1 120 ) (* comprado_mes0_aceite0 110 ) ) ) ) ) ) ) ) ) ) ) ) ) ) ) ) ) ) ) ) ) ) ) ) ) )
(assert (= costes (+ 4300 (+ costeAceiteCompra costeAlmacMes ) ) ) )
(assert (= beneficio (- ganancias costes ) ) )
(assert (<= (+ (ite (> refinado_mes0_aceite5 0 ) 1 0 ) (+ (ite (> refinado_mes0_aceite4 0 ) 1 0 ) (+ (ite (> refinado_mes0_aceite3 0 ) 1 0 ) (+ (ite (> refinado_mes0_aceite2 0 ) 1 0 ) (+ (ite (> refinado_mes0_aceite1 0 ) 1 0 ) (+ (ite (> refinado_mes0_aceite0 0 ) 1 0 ) refinado_mes3_aceite3 ) ) ) ) ) ) 5 ) )
(assert (<= (+ (ite (> refinado_mes1_aceite5 0 ) 1 0 ) (+ (ite (> refinado_mes1_aceite4 0 ) 1 0 ) (+ (ite (> refinado_mes1_aceite3 0 ) 1 0 ) (+ (ite (> refinado_mes1_aceite2 0 ) 1 0 ) (+ (ite (> refinado_mes1_aceite1 0 ) 1 0 ) (+ (ite (> refinado_mes1_aceite0 0 ) 1 0 ) refinado_mes3_aceite3 ) ) ) ) ) ) 5 ) )
(assert (<= (+ (ite (> refinado_mes2_aceite5 0 ) 1 0 ) (+ (ite (> refinado_mes2_aceite4 0 ) 1 0 ) (+ (ite (> refinado_mes2_aceite3 0 ) 1 0 ) (+ (ite (> refinado_mes2_aceite2 0 ) 1 0 ) (+ (ite (> refinado_mes2_aceite1 0 ) 1 0 ) (+ (ite (> refinado_mes2_aceite0 0 ) 1 0 ) refinado_mes3_aceite3 ) ) ) ) ) ) 5 ) )
(assert (<= (+ (ite (> refinado_mes3_aceite5 0 ) 1 0 ) (+ (ite (> refinado_mes3_aceite4 0 ) 1 0 ) (+ (ite (> refinado_mes3_aceite3 0 ) 1 0 ) (+ (ite (> refinado_mes3_aceite2 0 ) 1 0 ) (+ (ite (> refinado_mes3_aceite1 0 ) 1 0 ) (+ (ite (> refinado_mes3_aceite0 0 ) 1 0 ) refinado_mes3_aceite3 ) ) ) ) ) ) 5 ) )
(assert (=> (> refinado_mes0_aceite0 0 ) (>= refinado_mes0_aceite0 50 ) ) )
(assert (=> (> refinado_mes0_aceite1 0 ) (>= refinado_mes0_aceite1 50 ) ) )
(assert (=> (> refinado_mes0_aceite2 0 ) (>= refinado_mes0_aceite2 50 ) ) )
(assert (=> (> refinado_mes0_aceite3 0 ) (>= refinado_mes0_aceite3 50 ) ) )
(assert (=> (> refinado_mes0_aceite4 0 ) (>= refinado_mes0_aceite4 50 ) ) )
(assert (=> (> refinado_mes0_aceite5 0 ) (>= refinado_mes0_aceite5 50 ) ) )
(assert (=> (> refinado_mes1_aceite0 0 ) (>= refinado_mes1_aceite0 50 ) ) )
(assert (=> (> refinado_mes1_aceite1 0 ) (>= refinado_mes1_aceite1 50 ) ) )
(assert (=> (> refinado_mes1_aceite2 0 ) (>= refinado_mes1_aceite2 50 ) ) )
(assert (=> (> refinado_mes1_aceite3 0 ) (>= refinado_mes1_aceite3 50 ) ) )
(assert (=> (> refinado_mes1_aceite4 0 ) (>= refinado_mes1_aceite4 50 ) ) )
(assert (=> (> refinado_mes1_aceite5 0 ) (>= refinado_mes1_aceite5 50 ) ) )
(assert (=> (> refinado_mes2_aceite0 0 ) (>= refinado_mes2_aceite0 50 ) ) )
(assert (=> (> refinado_mes2_aceite1 0 ) (>= refinado_mes2_aceite1 50 ) ) )
(assert (=> (> refinado_mes2_aceite2 0 ) (>= refinado_mes2_aceite2 50 ) ) )
(assert (=> (> refinado_mes2_aceite3 0 ) (>= refinado_mes2_aceite3 50 ) ) )
(assert (=> (> refinado_mes2_aceite4 0 ) (>= refinado_mes2_aceite4 50 ) ) )
(assert (=> (> refinado_mes2_aceite5 0 ) (>= refinado_mes2_aceite5 50 ) ) )
(assert (=> (> refinado_mes3_aceite0 0 ) (>= refinado_mes3_aceite0 50 ) ) )
(assert (=> (> refinado_mes3_aceite1 0 ) (>= refinado_mes3_aceite1 50 ) ) )
(assert (=> (> refinado_mes3_aceite2 0 ) (>= refinado_mes3_aceite2 50 ) ) )
(assert (=> (> refinado_mes3_aceite3 0 ) (>= refinado_mes3_aceite3 50 ) ) )
(assert (=> (> refinado_mes3_aceite4 0 ) (>= refinado_mes3_aceite4 50 ) ) )
(assert (=> (> refinado_mes3_aceite5 0 ) (>= refinado_mes3_aceite5 50 ) ) )
(assert (=> (> refinado_mes0_aceite0 0 ) (> refinado_mes0_aceite2 0 ) ) )
(assert (=> (> refinado_mes0_aceite5 0 ) (> refinado_mes0_aceite2 0 ) ) )
(assert (=> (> refinado_mes1_aceite0 0 ) (> refinado_mes1_aceite2 0 ) ) )
(assert (=> (> refinado_mes1_aceite5 0 ) (> refinado_mes1_aceite2 0 ) ) )
(assert (=> (> refinado_mes2_aceite0 0 ) (> refinado_mes2_aceite2 0 ) ) )
(assert (=> (> refinado_mes2_aceite5 0 ) (> refinado_mes2_aceite2 0 ) ) )
(assert (=> (> refinado_mes3_aceite0 0 ) (> refinado_mes3_aceite2 0 ) ) )
(assert (=> (> refinado_mes3_aceite5 0 ) (> refinado_mes3_aceite2 0 ) ) )
(assert (<= 150 (+ comprado_mes3_aceite0 (+ comprado_mes2_aceite0 (+ comprado_mes1_aceite0 comprado_mes0_aceite0 ) ) ) ) )
(assert (<= 120 (+ comprado_mes3_aceite1 (+ comprado_mes2_aceite1 (+ comprado_mes1_aceite1 comprado_mes0_aceite1 ) ) ) ) )
(assert (<= 100 (+ comprado_mes3_aceite2 (+ comprado_mes2_aceite2 (+ comprado_mes1_aceite2 comprado_mes0_aceite2 ) ) ) ) )
(assert (<= 100 (+ comprado_mes3_aceite3 (+ comprado_mes2_aceite3 (+ comprado_mes1_aceite3 comprado_mes0_aceite3 ) ) ) ) )
(assert (<= 100 (+ comprado_mes3_aceite4 (+ comprado_mes2_aceite4 (+ comprado_mes1_aceite4 comprado_mes0_aceite4 ) ) ) ) )
(assert (<= 100 (+ comprado_mes3_aceite5 (+ comprado_mes2_aceite5 (+ comprado_mes1_aceite5 comprado_mes0_aceite5 ) ) ) ) )
(assert (<= 300 (+ refinado_mes0_aceite5 (+ refinado_mes0_aceite4 (+ refinado_mes0_aceite3 (+ refinado_mes0_aceite2 (+ refinado_mes0_aceite1 refinado_mes0_aceite0 ) ) ) ) ) ) )
(assert (<= 300 (+ refinado_mes1_aceite5 (+ refinado_mes1_aceite4 (+ refinado_mes1_aceite3 (+ refinado_mes1_aceite2 (+ refinado_mes1_aceite1 refinado_mes1_aceite0 ) ) ) ) ) ) )
(assert (<= 300 (+ refinado_mes2_aceite5 (+ refinado_mes2_aceite4 (+ refinado_mes2_aceite3 (+ refinado_mes2_aceite2 (+ refinado_mes2_aceite1 refinado_mes2_aceite0 ) ) ) ) ) ) )
(assert (<= 300 (+ refinado_mes3_aceite5 (+ refinado_mes3_aceite4 (+ refinado_mes3_aceite3 (+ refinado_mes3_aceite2 (+ refinado_mes3_aceite1 refinado_mes3_aceite0 ) ) ) ) ) ) )
(assert (>= beneficio 119000 ) )
(assert-soft (and (>= beneficio 119000 ) (< beneficio 130900.00000000001 ) ) :weight 100.0 )
(assert-soft (and (>= beneficio 130900.00000000001 ) (< beneficio 142800.0 ) ) :weight 110.00000000000001 )
(assert-soft (and (>= beneficio 142800.0 ) (< beneficio 154700.0 ) ) :weight 120.0 )
(assert-soft (and (>= beneficio 154700.0 ) (< beneficio 166600.0 ) ) :weight 130.0 )
(assert-soft (and (>= beneficio 166600.0 ) (< beneficio 178500.0 ) ) :weight 140.0 )
(assert-soft (and (>= beneficio 178500.0 ) (< beneficio 190400.0 ) ) :weight 150.0 )
(assert-soft (and (>= beneficio 190400.0 ) (< beneficio 202300.0 ) ) :weight 160.0 )
(assert-soft (and (>= beneficio 202300.0 ) (< beneficio 214200.0 ) ) :weight 170.0 )
(assert-soft (and (>= beneficio 214200.0 ) (< beneficio 226100.0 ) ) :weight 180.0 )
(assert-soft (and (>= beneficio 226100.0 ) (< beneficio 238000 ) ) :weight 190.0 )
(assert-soft (and (>= beneficio 238000 ) (< beneficio 249900.0 ) ) :weight 200.0 )
(assert-soft (and (>= beneficio 249900.0 ) (< beneficio 261800.00000000003 ) ) :weight 210.0 )
(assert-soft (and (>= beneficio 261800.00000000003 ) (< beneficio 273700.0 ) ) :weight 220.00000000000003 )
(assert-soft (and (>= beneficio 273700.0 ) (< beneficio 285600.0 ) ) :weight 229.99999999999997 )
(assert-soft (and (>= beneficio 285600.0 ) (< beneficio 297500.0 ) ) :weight 240.0 )
(assert-soft (and (>= beneficio 297500.0 ) (< beneficio 309400.0 ) ) :weight 250.0 )
(assert-soft (and (>= beneficio 309400.0 ) (< beneficio 321300.0 ) ) :weight 260.0 )
(assert-soft (and (>= beneficio 321300.0 ) (< beneficio 333200.0 ) ) :weight 270.0 )
(assert-soft (and (>= beneficio 333200.0 ) (< beneficio 345100.0 ) ) :weight 280.0 )
(assert-soft (and (>= beneficio 345100.0 ) (< beneficio 357000 ) ) :weight 290.0 )
(assert-soft (and (>= beneficio 357000 ) (< beneficio 368900.0 ) ) :weight 300.0 )
(assert-soft (and (>= beneficio 368900.0 ) (< beneficio 380800.0 ) ) :weight 310.0 )
(assert-soft (and (>= beneficio 380800.0 ) (< beneficio 392700.0 ) ) :weight 320.0 )
(assert-soft (and (>= beneficio 392700.0 ) (< beneficio 404600.0 ) ) :weight 330.0 )
(assert-soft (and (>= beneficio 404600.0 ) (< beneficio 416500.0 ) ) :weight 340.0 )
(assert-soft (and (>= beneficio 416500.0 ) (< beneficio 428400.0 ) ) :weight 350.0 )
(assert-soft (and (>= beneficio 428400.0 ) (< beneficio 440300.0 ) ) :weight 360.0 )
(assert-soft (and (>= beneficio 440300.0 ) (< beneficio 452200.0 ) ) :weight 370.0 )
(assert-soft (and (>= beneficio 452200.0 ) (< beneficio 464100.0 ) ) :weight 380.0 )
(assert-soft (and (>= beneficio 464100.0 ) (< beneficio 476000 ) ) :weight 390.0 )
(assert-soft (and (>= beneficio 476000 ) (< beneficio 487899.99999999994 ) ) :weight 400.0 )
(assert-soft (and (>= beneficio 487899.99999999994 ) (< beneficio 499800.0 ) ) :weight 409.99999999999994 )
(assert-soft (and (>= beneficio 499800.0 ) (< beneficio 511700.0 ) ) :weight 420.0 )
(assert-soft (and (>= beneficio 511700.0 ) (< beneficio 523600.00000000006 ) ) :weight 430.0 )
(assert-soft (and (>= beneficio 523600.00000000006 ) (< beneficio 535500.0 ) ) :weight 440.00000000000006 )
(assert-soft (and (>= beneficio 535500.0 ) (< beneficio 547400.0 ) ) :weight 450.0 )
(assert-soft (and (>= beneficio 547400.0 ) (< beneficio 559300.0 ) ) :weight 459.99999999999994 )
(assert-soft (and (>= beneficio 559300.0 ) (< beneficio 571200.0 ) ) :weight 470.0 )
(assert-soft (and (>= beneficio 571200.0 ) (< beneficio 583100.0 ) ) :weight 480.0 )
(assert-soft (and (>= beneficio 583100.0 ) (< beneficio 595000 ) ) :weight 490.00000000000006 )
(assert-soft (and (>= beneficio 595000 ) (< beneficio 606900.0 ) ) :weight 500.0 )
(assert-soft (and (>= beneficio 606900.0 ) (< beneficio 618800.0 ) ) :weight 509.99999999999994 )
(assert-soft (and (>= beneficio 618800.0 ) (< beneficio 630700.0 ) ) :weight 520.0 )
(assert-soft (and (>= beneficio 630700.0 ) (< beneficio 642600.0 ) ) :weight 530.0 )
(assert-soft (and (>= beneficio 642600.0 ) (< beneficio 654500.0 ) ) :weight 540.0 )
(assert-soft (and (>= beneficio 654500.0 ) (< beneficio 666400.0 ) ) :weight 550.0 )
(assert-soft (and (>= beneficio 666400.0 ) (< beneficio 678300.0 ) ) :weight 560.0 )
(assert-soft (and (>= beneficio 678300.0 ) (< beneficio 690200.0 ) ) :weight 570.0 )
(assert-soft (and (>= beneficio 690200.0 ) (< beneficio 702100.0 ) ) :weight 580.0 )
(assert-soft (and (>= beneficio 702100.0 ) (< beneficio 714000 ) ) :weight 590.0 )
(assert-soft (and (>= beneficio 714000 ) (< beneficio 725900.0 ) ) :weight 600.0 )
(assert-soft (and (>= beneficio 725900.0 ) (< beneficio 737800.0 ) ) :weight 610.0 )
(assert-soft (and (>= beneficio 737800.0 ) (< beneficio 749700.0 ) ) :weight 620.0 )
(assert-soft (and (>= beneficio 749700.0 ) (< beneficio 761600.0 ) ) :weight 630.0 )
(assert-soft (and (>= beneficio 761600.0 ) (< beneficio 773500.0 ) ) :weight 640.0 )
(assert-soft (and (>= beneficio 773500.0 ) (< beneficio 785400.0 ) ) :weight 650.0 )
(assert-soft (and (>= beneficio 785400.0 ) (< beneficio 797300.0 ) ) :weight 660.0 )
(assert-soft (and (>= beneficio 797300.0 ) (< beneficio 809200.0 ) ) :weight 670.0 )
(assert-soft (and (>= beneficio 809200.0 ) (< beneficio 821100.0 ) ) :weight 680.0 )
(assert-soft (and (>= beneficio 821100.0 ) (< beneficio 833000 ) ) :weight 690.0 )
(assert-soft (and (>= beneficio 833000 ) (< beneficio 844900.0 ) ) :weight 700.0 )
(assert-soft (and (>= beneficio 844900.0 ) (< beneficio 856800.0 ) ) :weight 710.0 )
(assert-soft (and (>= beneficio 856800.0 ) (< beneficio 868700.0 ) ) :weight 720.0 )
(assert-soft (and (>= beneficio 868700.0 ) (< beneficio 880600.0 ) ) :weight 730.0 )
(assert-soft (and (>= beneficio 880600.0 ) (< beneficio 892500.0 ) ) :weight 740.0 )
(assert-soft (and (>= beneficio 892500.0 ) (< beneficio 904400.0 ) ) :weight 750.0 )
(assert-soft (and (>= beneficio 904400.0 ) (< beneficio 916300.0 ) ) :weight 760.0 )
(assert-soft (and (>= beneficio 916300.0 ) (< beneficio 928200.0 ) ) :weight 770.0 )
(assert-soft (and (>= beneficio 928200.0 ) (< beneficio 940100.0 ) ) :weight 780.0 )
(assert-soft (and (>= beneficio 940100.0 ) (< beneficio 952000 ) ) :weight 790.0 )
(assert-soft (and (>= beneficio 952000 ) (< beneficio 963900.0 ) ) :weight 800.0 )
(assert-soft (and (>= beneficio 963900.0 ) (< beneficio 975799.9999999999 ) ) :weight 810.0 )
(assert-soft (and (>= beneficio 975799.9999999999 ) (< beneficio 987700.0000000001 ) ) :weight 819.9999999999999 )
(assert-soft (and (>= beneficio 987700.0000000001 ) (< beneficio 999600.0 ) ) :weight 830.0000000000001 )
(assert-soft (and (>= beneficio 999600.0 ) (< beneficio 1011500.0 ) ) :weight 840.0 )
(assert-soft (and (>= beneficio 1011500.0 ) (< beneficio 1023400.0 ) ) :weight 850.0 )
(assert-soft (and (>= beneficio 1023400.0 ) (< beneficio 1035299.9999999999 ) ) :weight 860.0 )
(assert-soft (and (>= beneficio 1035299.9999999999 ) (< beneficio 1047200.0000000001 ) ) :weight 869.9999999999999 )
(assert-soft (and (>= beneficio 1047200.0000000001 ) (< beneficio 1059100.0 ) ) :weight 880.0000000000001 )
(assert-soft (and (>= beneficio 1059100.0 ) (< beneficio 1071000 ) ) :weight 890.0 )
(assert-soft (and (>= beneficio 1071000 ) (< beneficio 1082900.0 ) ) :weight 900.0 )
(assert-soft (and (>= beneficio 1082900.0 ) (< beneficio 1094800.0 ) ) :weight 910.0 )
(assert-soft (and (>= beneficio 1094800.0 ) (< beneficio 1106700.0 ) ) :weight 919.9999999999999 )
(assert-soft (and (>= beneficio 1106700.0 ) (< beneficio 1118600.0 ) ) :weight 930.0000000000001 )
(assert-soft (and (>= beneficio 1118600.0 ) (< beneficio 1130500.0 ) ) :weight 940.0 )
(assert-soft (and (>= beneficio 1130500.0 ) (< beneficio 1142400.0 ) ) :weight 950.0 )
(assert-soft (and (>= beneficio 1142400.0 ) (< beneficio 1154300.0 ) ) :weight 960.0 )
(assert-soft (and (>= beneficio 1154300.0 ) (< beneficio 1166200.0 ) ) :weight 969.9999999999999 )
(assert-soft (and (>= beneficio 1166200.0 ) (< beneficio 1178100.0 ) ) :weight 980.0000000000001 )
(assert-soft (and (>= beneficio 1178100.0 ) (< beneficio 1190000 ) ) :weight 990.0 )
(assert-soft (and (>= beneficio 1190000 ) (< beneficio 1201900.0 ) ) :weight 1000.0 )
(assert-soft (and (>= beneficio 1201900.0 ) (< beneficio 1213800.0 ) ) :weight 1010.0 )
(assert-soft (and (>= beneficio 1213800.0 ) (< beneficio 1225700.0 ) ) :weight 1019.9999999999999 )
(assert-soft (and (>= beneficio 1225700.0 ) (< beneficio 1237600.0 ) ) :weight 1030.0 )
(assert-soft (and (>= beneficio 1237600.0 ) (< beneficio 1249500.0 ) ) :weight 1040.0 )
(assert-soft (and (>= beneficio 1249500.0 ) (< beneficio 1261400.0 ) ) :weight 1050.0 )
(assert-soft (and (>= beneficio 1261400.0 ) (< beneficio 1273300.0 ) ) :weight 1060.0 )
(assert-soft (and (>= beneficio 1273300.0 ) (< beneficio 1285200.0 ) ) :weight 1070.0 )
(assert-soft (and (>= beneficio 1285200.0 ) (< beneficio 1297100.0 ) ) :weight 1080.0 )
(assert-soft (and (>= beneficio 1297100.0 ) (< beneficio 1309000 ) ) :weight 1090.0 )
(assert-soft (>= beneficio 1309000 ) :weight 10000.0 )
(check-sat)
(get-objectives)
(get-value (iniMes_mes0_aceite0) )
(get-value (comprado_mes0_aceite0) )
(get-value (refinado_mes0_aceite0) )
(get-value (iniMes_mes0_aceite1) )
(get-value (comprado_mes0_aceite1) )
(get-value (refinado_mes0_aceite1) )
(get-value (iniMes_mes0_aceite2) )
(get-value (comprado_mes0_aceite2) )
(get-value (refinado_mes0_aceite2) )
(get-value (iniMes_mes0_aceite3) )
(get-value (comprado_mes0_aceite3) )
(get-value (refinado_mes0_aceite3) )
(get-value (iniMes_mes0_aceite4) )
(get-value (comprado_mes0_aceite4) )
(get-value (refinado_mes0_aceite4) )
(get-value (iniMes_mes0_aceite5) )
(get-value (comprado_mes0_aceite5) )
(get-value (refinado_mes0_aceite5) )
(get-value (totalRefinado_mes0) )
(get-value (iniMes_mes1_aceite0) )
(get-value (comprado_mes1_aceite0) )
(get-value (refinado_mes1_aceite0) )
(get-value (iniMes_mes1_aceite1) )
(get-value (comprado_mes1_aceite1) )
(get-value (refinado_mes1_aceite1) )
(get-value (iniMes_mes1_aceite2) )
(get-value (comprado_mes1_aceite2) )
(get-value (refinado_mes1_aceite2) )
(get-value (iniMes_mes1_aceite3) )
(get-value (comprado_mes1_aceite3) )
(get-value (refinado_mes1_aceite3) )
(get-value (iniMes_mes1_aceite4) )
(get-value (comprado_mes1_aceite4) )
(get-value (refinado_mes1_aceite4) )
(get-value (iniMes_mes1_aceite5) )
(get-value (comprado_mes1_aceite5) )
(get-value (refinado_mes1_aceite5) )
(get-value (totalRefinado_mes1) )
(get-value (iniMes_mes2_aceite0) )
(get-value (comprado_mes2_aceite0) )
(get-value (refinado_mes2_aceite0) )
(get-value (iniMes_mes2_aceite1) )
(get-value (comprado_mes2_aceite1) )
(get-value (refinado_mes2_aceite1) )
(get-value (iniMes_mes2_aceite2) )
(get-value (comprado_mes2_aceite2) )
(get-value (refinado_mes2_aceite2) )
(get-value (iniMes_mes2_aceite3) )
(get-value (comprado_mes2_aceite3) )
(get-value (refinado_mes2_aceite3) )
(get-value (iniMes_mes2_aceite4) )
(get-value (comprado_mes2_aceite4) )
(get-value (refinado_mes2_aceite4) )
(get-value (iniMes_mes2_aceite5) )
(get-value (comprado_mes2_aceite5) )
(get-value (refinado_mes2_aceite5) )
(get-value (totalRefinado_mes2) )
(get-value (iniMes_mes3_aceite0) )
(get-value (comprado_mes3_aceite0) )
(get-value (refinado_mes3_aceite0) )
(get-value (iniMes_mes3_aceite1) )
(get-value (comprado_mes3_aceite1) )
(get-value (refinado_mes3_aceite1) )
(get-value (iniMes_mes3_aceite2) )
(get-value (comprado_mes3_aceite2) )
(get-value (refinado_mes3_aceite2) )
(get-value (iniMes_mes3_aceite3) )
(get-value (comprado_mes3_aceite3) )
(get-value (refinado_mes3_aceite3) )
(get-value (iniMes_mes3_aceite4) )
(get-value (comprado_mes3_aceite4) )
(get-value (refinado_mes3_aceite4) )
(get-value (iniMes_mes3_aceite5) )
(get-value (comprado_mes3_aceite5) )
(get-value (refinado_mes3_aceite5) )
(get-value (totalRefinado_mes3) )
(get-value (beneficio) )
